1060717
57,17,15,24,10,92,38,27,77,49,76,23,22,41,50,20,71,82,90,37,12,79,2,5,64,84,43,85,74,36,86,48,34,97,66,61,11,91,47,54,8,75,28,94,19,18,16,67,39,73,4,60,29,58,30,72,35,46,-1,68,31,7,55,45,93,70,53,42,89,40,33,0,1,3,62,25,95,51,6,87,83,78,81,13,14,56,59,80,65,63,52,96,21,9,26,44,69,32,88,57
